#SOLVERNAME# PAJ_Gurobi_MOSEK_msd_nodisagg_subponly_noinit
#SOLVER# Pajarito.PajaritoSolver(3, 3600.0, 1.0e-5, true, Gurobi.GurobiSolver(nothing, Any[(:OutputFlag, 1), (:Threads, 8), (:IntFeasTol, 1.0e-9), (:FeasibilityTol, 1.0e-8), (:MIPGap, 1.0e-5)]), Pajarito.UnsetSolver(), 0, false, true, Mosek.MosekSolver(Any[(:LOG, 0), (:NUM_THREADS, 8), (:MSK_DPAR_INTPNT_CO_TOL_REL_GAP, 1.0e-10), (:MSK_DPAR_INTPNT_CO_TOL_PFEAS, 1.0e-10), (:MSK_DPAR_INTPNT_CO_TOL_DFEAS, 1.0e-10), (:MSK_DPAR_INTPNT_CO_TOL_NEAR_REL, 1000.0)]), true, true, false, false, false, false, false, false, false, false, false, false, false, false, false, true, 10.0, false, true, false, false, false, 1.0e-12, 1.0e-8, false, "")
#INSTANCE# sssd-weak-30-4.cbf.gz
#TIMELIMIT# 3600.0

Problem dimensions:
       variables |     185
     constraints |     255
   nonzeros in A |     540

Cones summary:
Cone             | Count   | Min dim.  | Max dim. 
    Rotated S.O. |      12 |         3 |         3

Variable types:
      continuous |      53
         integer |     132

Transforming data...               0.00s

Creating conic subproblem...       0.01s

Building MIP model...              0.00s

Solving conic relaxation...        0.01s
 - Relaxation status    =        Optimal
 - Relaxation bound     =  104042.779051
Academic license - for non-commercial use only
Optimize a model with 232 rows, 184 columns and 564 nonzeros
Variable types: 52 continuous, 132 integer (0 binary)
Coefficient statistics:
  Matrix range     [7e-05, 2e+01]
  Objective range  [4e+01, 9e+04]
  Bounds range     [0e+00, 0e+00]
  RHS range        [1e+00, 1e+00]
Presolve removed 173 rows and 28 columns
Presolve time: 0.00s
Presolved: 59 rows, 156 columns, 336 nonzeros
Variable types: 24 continuous, 132 integer (132 binary)

Root relaxation: objective 1.040428e+05, 88 iterations, 0.00 seconds

    Nodes    |    Current Node    |     Objective Bounds      |     Work
 Expl Unexpl |  Obj  Depth IntInf | Incumbent    BestBd   Gap | It/Node Time

     0     0 104042.779    0   12          - 104042.779      -     -    0s
H    0     0                    264386.14560 104042.779  60.6%     -    0s
     0     0 104240.534    0   17 264386.146 104240.534  60.6%     -    0s
     0     0 104273.709    0   19 264386.146 104273.709  60.6%     -    0s
     0     0 104295.665    0   19 264386.146 104295.665  60.6%     -    0s
H    0     0                    264386.14557 104295.665  60.6%     -    0s
     0     0 104419.260    0   28 264386.146 104419.260  60.5%     -    0s
     0     0 104431.663    0   28 264386.146 104431.663  60.5%     -    0s
     0     0 104431.680    0   30 264386.146 104431.680  60.5%     -    0s
     0     0 104526.539    0   27 264386.146 104526.539  60.5%     -    0s
     0     0 104530.605    0   31 264386.146 104530.605  60.5%     -    0s
     0     0 104532.327    0   30 264386.146 104532.327  60.5%     -    0s
     0     0 104576.655    0   32 264386.146 104576.655  60.4%     -    0s
     0     0 104577.549    0   36 264386.146 104577.549  60.4%     -    0s
     0     0 104586.560    0   41 264386.146 104586.560  60.4%     -    0s
     0     2 104586.560    0   41 264386.146 104586.560  60.4%     -    0s
H  209   209                    264290.77982 104603.016  60.4%   9.6    0s
H14156   629                    264261.84291 260167.547  1.55%   4.3    2s
H18902   751                    264258.38372 263872.506  0.15%   3.8    2s
H20041  1438                    264253.54259 263881.491  0.14%   3.7    2s
H20664  1860                    264249.71858 263886.628  0.14%   3.7    2s
H20945  1985                    264248.54534 263906.387  0.13%   3.7    2s
H23432  2934                    264179.05915 263928.352  0.09%   3.6    2s
H23694  2908                    264174.44373 263932.678  0.09%   3.6    2s
H25427  3022                    264157.78230 263954.938  0.08%   3.5    2s
H25666  2465                    264127.60607 263960.299  0.06%   3.5    2s

Cutting planes:
  Gomory: 7
  Cover: 4
  MIR: 16
  Flow cover: 29
  GUB cover: 1
  Lazy constraints: 70

Explored 33113 nodes (119368 simplex iterations) in 3.28 seconds
Thread count was 8 (of 16 available processors)

Solution count 10: 264128 264158 264174 ... 264291

Optimal solution found (tolerance 1.00e-05)
Best objective 2.641276060735e+05, best bound 2.641276060735e+05, gap 0.0000%

Starting MIP-solver-driven algorithm

MIP-solver-driven algorithm summary:
 - Status               =        Optimal
 - Best feasible        =  +2.641276e+05
 - Best bound           =  +2.641276e+05
 - Relative opt. gap    =      0.000e+00
 - Total time (s)       =       3.30e+00

Timers (s):
 - Setup                =   1.40e-02
 -- Transform data      =   2.00e-04
 -- Create conic data   =   1.34e-02
 -- Create MIP data     =   4.55e-04
 - Algorithm            =   3.29e+00
 -- Solve relaxation    =   7.23e-03
 -- Get relaxation cuts =   5.29e-05
 -- MIP solver driving  =   3.28e+00
 -- Solve subproblems   =   4.42e-01
 -- Get subproblem cuts =   1.69e-02
 -- Get separation cuts =   0.00e+00

Counters:
 - Lazy callbacks       =   128
 -- Integer repeats     =    15
 -- Conic subproblems   =   114
 --- Infeasible         =     0
 --- Optimal            =   114
 --- Suboptimal         =     0
 --- UserLimit          =     0
 --- ConicFailure       =     0
 --- Other status       =     0
 -- Feasible solutions  =   114
 --- From subproblems   =   114
 --- In lazy callback   =     0
 - Heuristic callbacks  = 20514
 -- Solutions passed    =    11

Solution returned by conic solver

Distance to feasibility (negative indicates strict feasibility):
Cone             | Variable  | Constraint
          Linear |  0.00e+00 |  5.49e-11
    Rotated S.O. |        NA |  2.69e-10

Distance to integrality of integer/binary variables:
         integer |  0.00e+00

#STATUS# Optimal
#OBJVAL# 264127.60607348394
#OBJBOUND# 264127.60607348394
#NODECOUNT# 33113
#TIMESOLVER# 3.3033511638641357
#TIMEALL# 3.349375009536743
#SOLUTION# [-0.0,-0.0,1.0,-0.0,1.0,-0.0,-0.0,-0.0,1.0,-0.0,-0.0,-0.0,1.0,-0.0,-0.0,-0.0,1.0,-0.0,-0.0,-0.0,1.0,-0.0,-0.0,-0.0,-0.0,-0.0,1.0,-0.0,0.0,-0.0,-0.0,1.0,-0.0,-0.0,-0.0,1.0,-0.0,1.0,0.0,-0.0,-0.0,-0.0,-0.0,1.0,1.0,-0.0,-0.0,-0.0,-0.0,-0.0,1.0,-0.0,-0.0,1.0,-0.0,-0.0,1.0,-0.0,0.0,-0.0,-0.0,-0.0,-0.0,1.0,1.0,-0.0,-0.0,-0.0,-0.0,-0.0,-0.0,1.0,-0.0,-0.0,-0.0,1.0,-0.0,-0.0,1.0,-0.0,-0.0,1.0,-0.0,-0.0,-0.0,-0.0,-0.0,1.0,-0.0,1.0,-0.0,-0.0,1.0,-0.0,-0.0,0.0,-0.0,1.0,-0.0,-0.0,-0.0,-0.0,1.0,-0.0,-0.0,-0.0,1.0,-0.0,-0.0,-0.0,-0.0,1.0,-0.0,0.0,1.0,-0.0,-0.0,1.0,-0.0,-0.0,-0.0,-0.0,1.0,-0.0,-0.0,1.0,-0.0,-0.0,1.0,-0.0,0.0,1.0,0.6898591223679152,0.6141761661813024,0.7006671728051563,0.7090020219563017,0.0,0.0,0.40823469478718044,0.0,0.0,0.3804889328064893,0.0,0.0,0.4119954713379126,0.0,0.0,0.4148631853879073,0.0,0.3449295611839576,0.3449295611839576,0.1408122137903674,0.3070880830906512,0.3070880830906512,0.11684361668740656,0.35033358640257817,0.35033358640257817,0.14433585073362187,0.35450101097815084,0.35450101097815084,0.1470694182841972,1.6898591223679151,1.6898591223679151,1.6898591223679151,1.6141761661813026,1.6141761661813026,1.6141761661813026,1.7006671728051563,1.7006671728051563,1.7006671728051563,1.7090020219563016,1.7090020219563016,1.7090020219563016,0.6898591223928535,0.6898591223928536,0.6898591223679152,0.614176166153488,0.6141761661534767,0.6141761661813024,0.7006671727585173,0.7006671727585103,0.7006671728051563,0.7090020220111697,0.7090020220111561,0.7090020219563017]
